c --- [ banner ] -------------------------------------------------------------
c 
c CaDiCaL Radically Simplified CDCL SAT Solver
c Copyright (c) 2016-2021 A. Biere, M. Fleury, N. Froleyks
c 
c Version 1.5.2 9c38a080b32c28d805e8e6ca21849856b0cda605
c g++ (Ubuntu 7.5.0-3ubuntu1~18.04) 7.5.0 -Wall -Wextra -O3 -DNDEBUG
c Wed Feb 16 23:15:36 EST 2022 Linux fac-vanhoeve01 5.4.0-99-generic x86_64
c 
c --- [ parsing input ] ------------------------------------------------------
c 
c reading DIMACS file from '<stdin>' (use '-h' for a list of common options)
c found 'p cnf 2692 7976' header
c parsed 7976 clauses in 0.00 seconds process time
c disconnecting from '<stdin>'
c after reading 106558 bytes 0.1 MB
c 
c --- [ options ] ------------------------------------------------------------
c 
c all options are set to their default value
c 
c --- [ solving ] ------------------------------------------------------------
c 
c time measured in process time since initialization
c 
c  seconds  reductions  redundant irredundant
c         MB    restarts       trail    variables
c          level   conflicts       glue      remaining
c 
c *  0.00  5  0 0   0    0    0  0% 0 7974 2618 97%
c {  0.01  5  0 0   0    0    0  0% 0 7974 2618 97%
c i  0.01  5 333 0   1   57   53 25% 6 7974 2572 96%
c -  0.03  5 84 1  43  300  275 75% 9 7810 2572 96%
c -  0.06  6 46 2  94  901  710 84% 10 7810 2572 96%
c }  0.07  6 43 2 104 1001  808 85% 10 7810 2572 96%
c [  0.07  6  0 2 104 1001  808  0% 0 7810 2572 96%
c O  0.07  6 15 2 104 1002  809 95% 6 7810 2572 96%
c -  0.11  6 17 3 104 1801  973 93% 13 7810 2572 96%
c ]  0.18  6 18 3 105 3003 1795 92% 13 7810 2572 96%
c {  0.18  6 43 3 105 3003 1795 85% 10 7810 2572 96%
c -  0.18  6 43 4 105 3003 1250 85% 10 7810 2572 96%
c F  0.18  6 43 4 105 3004 1251 85% 10 7810 2572 96%
c s  0.19  6 40 4 129 3215 1438 86% 10 7810 2572 96%
c w  0.20  6 40 4 129 3215 1437 86% 10 7810 2572 96%
c e  0.22  6 40 4 129 3215   70 86% 10 5652 878 33%
c s  0.22  6 40 4 129 3215   64 86% 10 5652 878 33%
c -  0.28  6 30 5 198 4504 1237 87% 10 5652 878 33%
c p  0.30  6 28 5 205 5000 1686 86% 10 5652 878 33%
c #  0.34  6 25 5 247 6005 2468 79% 10 5652 878 33%
c 
c  seconds  reductions  redundant  irredundant
c         MB    restarts       trail     variables
c          level   conflicts       glue      remaining
c 
c -  0.35  6 24 6 247 6305 2041 77% 10 5652 878 33%
c }  0.38  6 22 6 247 7004 2624 73% 10 5652 878 33%
c [  0.38  6 18 6 247 7004 2624 282% 13 5652 878 33%
c -  0.43  6 16 7 248 8408 2585 190% 12 5652 878 33%
c I  0.51  6 15 7 249 10006 3951 148% 11 5652 878 33%
c -  0.55  7 18 8 250 10809 3235 139% 12 5652 878 33%
c -  0.70  7 21 9 252 13510 3838 123% 14 5652 878 33%
c s  0.73  7 21 9 252 13961 4247 121% 14 5652 878 33%
c s  0.75  7 21 9 252 13961 4229 121% 14 5652 878 33%
c ^  0.75  7 21 9 252 13961 4229 121% 14 5652 878 33%
c p  0.81  7 22 9 252 15001 5190 118% 15 5652 878 33%
c ]  0.81  7 22 9 252 15004 5193 118% 15 5652 878 33%
c {  0.81  7 22 9 252 15004 5193 73% 10 5652 878 33%
c B  0.81  7 22 9 252 15008 5197 73% 10 5652 878 33%
c -  0.88  7 21 10 307 16512 4363 77% 10 5652 878 33%
c -  1.04  6 21 11 512 19813 4579 78% 10 5652 878 33%
c W  1.11  6 21 11 609 21010 5693 79% 10 5652 878 33%
c -  1.22  7 21 12 840 23415 5275 80% 10 5652 878 33%
c -  1.42  8 20 13 1265 27316 5773 81% 10 5652 878 33%
c F  1.45  8 21 13 1329 28011 6388 81% 10 5652 878 33%
c 
c  seconds  reductions     redundant  irredundant
c         MB     restarts         trail     variables
c          level      conflicts       glue      remaining
c 
c p  1.55  8 20 13 1400 30001 8257 82% 10 5652 878 33%
c s  1.56  8 20 13 1414 30080 8322 82% 10 5652 878 33%
c w  1.58  8 20 13 1414 30080 8322 82% 10 5652 878 33%
c s  1.59  8 20 13 1414 30080 8321 82% 10 5652 878 33%
c ^  1.59  8 20 13 1414 30080 8321 82% 10 5652 878 33%
c }  1.64  8 20 13 1515 31011 9160 82% 10 5652 878 33%
c [  1.64  8 22 13 1515 31011 9160 118% 15 5652 878 33%
c -  1.67  8 22 14 1515 31517 6350 116% 15 5652 878 33%
c B  1.90  8 23 14 1518 36013 10454 108% 15 5652 878 33%
c -  1.91  8 23 15 1518 36017 6682 108% 15 5652 878 33%
c -  2.20  7 26 16 1521 40817 6577 103% 17 5652 878 33%
c W  2.50  7 27 16 1522 45015 10365 100% 18 5652 878 33%
c -  2.57  8 27 17 1523 45921 7002 100% 18 5652 878 33%
c p  2.84  8 27 17 1523 50001 10042 98% 18 5652 878 33%
c -  2.94  7 26 18 1523 51321 6928 98% 18 5652 878 33%
c s  2.96  7 26 18 1523 51572 7134 98% 18 5652 878 33%
c e  2.98  7 26 18 1523 51572 7132 98% 18 5654 877 33%
c s  2.98  7 26 18 1523 51572 7132 98% 18 5654 877 33%
c ^  2.98  7 26 18 1523 51572 7132 98% 18 5654 877 33%
c O  3.21  7 26 18 1524 55017 9548 97% 18 5654 877 33%
c 
c  seconds  reductions     redundant  irredundant
c         MB     restarts         trail     variables
c          level      conflicts       glue      remaining
c 
c -  3.32  8 25 19 1526 57022 6715 96% 18 5654 877 33%
c ]  3.64  8 24 19 1530 63011 10704 95% 17 5654 877 33%
c {  3.64  8 20 19 1530 63011 10704 82% 10 5654 877 33%
c -  3.65  8 20 20 1530 63024 6335 82% 10 5654 877 33%
c B  3.78  8 20 20 1723 66018 9057 82% 10 5654 877 33%
c -  3.94  8 20 21 1812 69325 8081 81% 10 5654 877 33%
c p  4.20  8 19 21 2058 75001 13060 79% 10 5654 877 33%
c -  4.25  9 19 22 2103 75926 9384 80% 10 5654 877 33%
c W  4.37  9 19 22 2158 78020 11280 80% 10 5654 877 33%
c s  4.41  9 19 22 2183 78460 11554 80% 10 5654 877 33%
c w  4.43  9 19 22 2183 78460 11548 80% 10 5654 877 33%
c e  4.44  9 19 22 2183 78460 11548 80% 10 5657 876 33%
c s  4.46  9 19 22 2183 78460 11529 80% 10 5657 876 33%
c ^  4.46  9 19 22 2183 78460 11529 80% 10 5657 876 33%
c -  4.68  9 19 23 2404 82826 10768 80% 10 5657 876 33%
c -  5.06  9 19 24 2918 90027 11074 81% 10 5657 876 33%
c #  5.11  9 19 24 2976 91021 12004 81% 10 5657 876 33%
c -  5.47 10 19 25 3521 97527 11815 82% 10 5657 876 33%
c p  5.86 10 19 25 3958 105001 18558 82% 10 5657 876 33%
c B  5.87 10 19 25 3958 105022 18578 82% 10 5657 876 33%
c 
c  seconds  reductions       redundant  irredundant
c         MB     restarts           trail     variables
c          level      conflicts         glue      remaining
c 
c -  5.90  9 19 26 3997 105327 12270 82% 10 5657 876 33%
c s  6.20  9 19 26 4315 110754 17105 82% 10 5657 876 33%
c e  6.24  9 19 26 4315 110754 4287 82% 10 7947 577 21%
c s  6.25  9 19 26 4315 110754 4286 82% 10 7947 577 21%
c ^  6.25  9 19 26 4315 110754 4286 82% 10 7947 577 21%
c -  6.37  9 19 27 4468 113427 5002 85% 10 7947 577 21%
c W  6.72  9 19 27 4989 120024 10852 83% 10 7947 577 21%
c -  6.82  8 19 28 5133 121827 10046 83% 10 7947 577 21%
c }  7.06  8 19 28 5413 127013 14654 82% 10 7947 577 21%
c [  7.06  8 24 28 5413 127013 14654 144% 17 7947 577 21%
c -  7.25  9 25 29 5413 130527 12439 138% 17 7947 577 21%
c B  7.57  9 26 29 5418 136027 17460 131% 17 7947 577 21%
c -  7.76 10 27 30 5420 139527 13292 128% 18 7947 577 21%
c p  7.79 10 27 30 5420 140004 13706 127% 18 7947 577 21%
c -  8.31  9 27 31 5421 148827 11880 120% 18 7947 577 21%
c W  8.59  9 27 31 5422 153028 14885 117% 18 7947 577 21%
c -  8.94 10 28 32 5422 158428 12538 114% 19 7947 577 21%
c s  9.27 10 29 32 5422 163727 17357 112% 19 7947 577 21%
c w  9.29 10 29 32 5422 163727 17354 112% 19 7947 577 21%
c e  9.30 10 29 32 5422 163727 16729 112% 19 8028 571 21%
c 
c  seconds  reductions       redundant   irredundant
c         MB     restarts           trail      variables
c          level      conflicts          glue      remaining
c 
c s  9.32 10 29 32 5422 163727 16728 112% 19 8028 571 21%
c -  9.64 12 30 33 5423 168329 13660 110% 20 8028 571 21%
c I  9.83 12 30 33 5425 171030 16046 109% 20 8028 571 21%
c - 10.36 12 30 34 5429 178529 14167 106% 20 8028 571 21%
c p 10.48 12 30 34 5429 180008 15461 106% 20 8028 571 21%
c - 11.17 11 29 35 5436 189029 14484 103% 20 8028 571 21%
c B 11.24 11 29 35 5436 190031 15288 103% 20 8028 571 21%
c - 11.93 13 31 36 5437 199830 14944 101% 21 8028 571 21%
c W 12.74 13 33 36 5444 210032 24115 99% 22 8028 571 21%
c - 12.84 14 33 37 5444 210931 15758 99% 22 8028 571 21%
c - 13.72 12 33 38 5451 222332 15682 97% 23 8028 571 21%
c s 13.92 12 33 38 5451 224743 17781 97% 23 8028 571 21%
c w 13.95 12 33 38 5451 224743 17774 97% 23 8028 571 21%
c s 13.97 12 33 38 5451 224743 17773 97% 23 8028 571 21%
c p 14.01 12 33 38 5451 225011 18006 97% 23 8028 571 21%
c O 14.43 12 33 38 5452 231034 23190 96% 23 8028 571 21%
c - 14.61 14 33 39 5452 234032 15658 96% 23 8028 571 21%
c - 15.35 14 31 40 5453 246032 14363 94% 22 8028 571 21%
c B 15.83 14 31 40 5454 253035 20240 94% 22 8028 571 21%
c ] 15.96 14 31 40 5454 255014 22079 93% 22 8028 571 21%
c 
c  seconds  reductions       redundant  irredundant
c         MB     restarts           trail     variables
c          level      conflicts         glue      remaining
c 
c { 15.96 14 19 40 5454 255014 22079 82% 10 8028 571 21%
c - 16.18 14 19 41 5699 258332 16774 82% 10 8028 571 21%
c - 16.94 14 19 42 6617 270932 18225 83% 10 8028 571 21%
c p 17.21 14 19 42 7006 275011 22007 83% 10 8028 571 21%
c F 17.27 14 19 42 7046 276039 22954 83% 10 8028 571 21%
c - 17.76 14 19 43 7535 283835 19706 82% 10 8028 571 21%
c - 18.62 15 19 44 8504 297036 21077 81% 10 8028 571 21%
c B 18.79 15 19 44 8675 300040 23778 81% 10 8028 571 21%
c - 19.49 17 19 45 9321 310536 21829 81% 10 8028 571 21%
c - 20.37 17 19 46 10118 324336 22318 81% 10 8028 571 21%
c W 20.50 17 19 46 10163 325042 22977 81% 10 8028 571 21%
c p 20.85 17 19 46 10624 330011 27523 81% 10 8028 571 21%
c - 21.48 17 19 47 11247 338436 23765 81% 10 8028 571 21%
c # 22.42 17 19 47 12443 351043 35295 81% 10 8028 571 21%
c - 22.58 17 19 48 12555 352837 24789 81% 10 8028 571 21%
c - 23.61 17 19 49 13626 367537 24737 81% 10 8028 571 21%
c B 24.20 17 19 49 14026 378044 33908 81% 10 8028 571 21%
c - 24.54 17 19 50 14355 382537 25249 81% 10 8028 571 21%
c p 25.05 17 19 50 14844 390011 32098 81% 10 8028 568 21%
c s 25.10 17 19 50 14844 390011 32042 81% 10 8028 568 21%
c 
c  seconds  reductions        redundant  irredundant
c         MB      restarts           trail     variables
c          level       conflicts         glue      remaining
c 
c v 25.14 17 19 50 14844 390011 32042 81% 10 8001 568 21%
c w 25.17 17 19 50 14844 390011 32029 81% 10 8001 568 21%
c s 25.23 17 19 50 14844 390011 32025 81% 10 7986 568 21%
c - 25.85 17 19 51 15509 397837 26582 81% 10 7986 568 21%
c W 26.54 17 19 51 15928 406045 34057 82% 10 7986 568 21%
c - 27.10 17 19 52 16382 413437 27274 82% 10 7986 568 21%
c - 28.31 17 19 53 17577 429337 28095 82% 10 7986 568 21%
c F 28.69 17 19 53 17911 435046 33061 81% 10 7986 568 21%
c - 29.54 17 19 54 18809 445539 28774 81% 10 7986 568 21%
c p 30.28 17 19 54 19521 455011 37544 81% 10 7986 568 21%
c - 30.82 17 18 55 19816 462040 29910 81% 10 7986 568 21%
c B 31.00 17 18 55 19913 465047 32657 81% 10 7986 568 21%
c s 31.16 17 18 55 20044 466282 33772 81% 10 7986 568 21%
c w 31.22 17 18 55 20044 466282 33767 81% 10 7986 568 21%
c s 31.29 17 18 55 20044 466282 33760 81% 10 7986 568 21%
c - 32.22 20 18 56 20697 478842 30805 81% 10 7986 568 21%
c - 33.64 17 18 57 22185 495943 31640 81% 10 7986 568 21%
c W 33.78 17 18 57 22195 496048 31737 81% 10 7986 568 21%
c } 34.94 17 18 57 23223 511015 45339 81% 10 7986 568 21%
c [ 34.94 17 31 57 23223 511015 45339 93% 22 7986 568 21%
c 
c  seconds  reductions        redundant  irredundant
c         MB      restarts           trail     variables
c          level       conflicts         glue      remaining
c 
c - 35.15 14 30 58 23223 513344 31812 93% 21 7986 568 21%
c p 36.03 14 30 58 23223 525012 42680 92% 21 7986 567 21%
c W 36.45 16 31 58 23223 528049 45468 92% 21 7981 567 21%
c - 36.71 15 31 59 23223 531046 32029 92% 21 7981 567 21%
c - 38.28 15 32 60 23230 549048 29719 91% 22 7981 567 21%
c s 38.43 15 32 60 23230 550182 30652 91% 22 7970 567 21%
c w 38.49 15 32 60 23230 550182 30649 91% 22 7970 567 21%
c s 38.54 15 32 60 23230 550182 30647 91% 22 7970 567 21%
c I 39.49 15 32 60 23236 561051 38958 90% 22 7970 567 21%
c - 40.03 18 31 61 23238 567349 28699 90% 21 7970 567 21%
c - 41.58 21 31 62 23245 585949 30086 90% 21 7970 567 21%
c B 42.40 21 30 62 23252 595054 38367 89% 21 7970 567 21%
c p 42.80 21 31 62 23253 600012 42978 89% 21 7970 567 21%
c - 43.20 21 31 63 23253 604850 31017 89% 21 7970 567 21%
c - 44.80 21 31 64 23255 624052 30838 89% 20 7970 567 21%
c ] 45.48 21 30 64 23260 630055 35759 89% 20 7970 567 21%
c 1 45.48 21 30 64 23260 630055 35759 89% 20 7970 567 21%
c 
c --- [ result ] -------------------------------------------------------------
c 
s SATISFIABLE
v -1 -2 -3 -4 -5 -6 -7 -8 -9 -10 -11 -12 -13 -14 -15 16 -17 18 -19 -20 21 -22
v -23 24 -25 -26 27 -28 -29 -30 -31 -32 -33 -34 -35 36 -37 -38 -39 -40 -41 -42
v -43 -44 -45 -46 47 -48 -49 -50 -51 -52 -53 -54 -55 56 -57 -58 -59 -60 -61
v -62 -63 -64 -65 -66 -67 -68 69 70 71 -72 73 -74 -75 -76 77 -78 -79 -80 81
v -82 -83 -84 85 -86 -87 -88 89 -90 -91 -92 -93 -94 -95 96 97 -98 -99 100 -101
v -102 103 -104 -105 -106 -107 -108 -109 -110 111 -112 -113 -114 -115 -116
v -117 -118 -119 -120 -121 -122 -123 -124 -125 -126 -127 -128 -129 -130 131
v -132 -133 -134 -135 -136 -137 -138 -139 140 141 -142 -143 -144 -145 -146
v -147 148 -149 -150 -151 -152 153 -154 -155 -156 -157 158 -159 -160 161 162
v -163 -164 -165 -166 167 -168 -169 -170 -171 -172 173 -174 -175 -176 177 -178
v 179 -180 -181 -182 183 -184 -185 -186 -187 -188 -189 -190 -191 -192 -193
v -194 -195 -196 -197 198 -199 -200 201 -202 -203 -204 -205 -206 -207 -208
v -209 210 -211 -212 -213 -214 -215 -216 -217 -218 -219 -220 -221 -222 -223
v -224 225 -226 -227 -228 -229 -230 231 232 233 234 -235 -236 -237 -238 -239
v 240 -241 -242 -243 -244 -245 -246 -247 -248 -249 -250 251 -252 253 254 -255
v -256 257 -258 259 260 261 -262 -263 264 -265 266 -267 -268 -269 -270 271
v -272 -273 -274 -275 -276 -277 -278 279 -280 -281 282 283 -284 285 -286 -287
v 288 289 290 -291 -292 293 294 295 -296 -297 -298 -299 -300 -301 302 303 304
v -305 -306 307 308 -309 310 -311 312 313 -314 -315 -316 317 318 319 -320 -321
v -322 -323 -324 325 326 327 328 329 330 331 332 333 334 335 336 337 338 339
v 340 341 342 343 344 345 346 347 348 349 350 351 352 353 354 355 356 357 358
v 359 360 361 362 363 364 365 366 367 368 369 370 371 372 373 374 375 376 377
v 378 379 380 381 382 383 384 385 386 387 388 389 390 391 392 393 394 395 396
v 397 398 -399 -400 401 402 403 404 405 406 407 408 409 410 411 412 413 414
v 415 416 417 418 419 420 421 422 423 424 425 426 427 428 429 430 431 432 433
v 434 435 436 437 438 439 440 441 442 443 444 445 446 447 448 449 450 451 452
v 453 454 455 456 457 458 459 460 461 462 463 464 465 466 467 468 469 470 471
v 472 -473 -474 -475 476 477 478 479 480 481 482 483 484 485 486 487 488 489
v 490 491 492 493 494 495 496 497 498 499 500 501 502 503 504 505 506 507 508
v 509 510 511 512 513 514 515 516 517 518 519 520 521 522 523 524 525 526 527
v 528 529 530 531 532 533 534 535 536 537 538 539 540 541 542 543 544 545 546
v -547 -548 -549 -550 -551 -552 553 554 555 556 557 558 559 560 561 562 563
v 564 565 566 567 568 569 570 571 572 573 574 575 576 577 578 579 580 581 582
v 583 584 585 586 587 588 589 590 591 592 593 594 595 596 597 598 599 600 601
v 602 603 604 605 606 607 608 609 610 611 612 613 614 615 616 617 618 619 620
v -621 -622 -623 -624 -625 -626 -627 -628 629 630 631 632 633 634 635 636 637
v 638 639 640 641 642 643 644 645 646 647 648 649 650 651 652 653 654 655 656
v 657 658 659 660 661 662 663 664 665 666 667 668 669 670 671 672 673 674 675
v 676 677 678 679 680 681 682 683 684 685 686 687 688 689 690 691 692 693 694
v -695 -696 -697 -698 -699 -700 -701 -702 -703 704 705 706 707 708 709 710 711
v 712 713 714 715 716 717 718 719 720 721 722 723 724 725 726 727 728 729 730
v 731 732 733 734 735 736 737 738 739 740 741 742 743 744 745 746 747 748 749
v 750 751 752 753 754 755 756 757 758 759 760 761 762 763 764 765 766 767 768
v -769 -770 -771 -772 -773 -774 -775 -776 -777 -778 779 780 781 782 783 784
v 785 786 787 788 789 790 791 792 793 794 795 796 797 798 799 800 801 802 803
v 804 805 806 807 808 809 810 811 812 813 814 815 816 817 818 819 820 821 822
v 823 824 825 826 827 828 829 830 831 832 833 834 835 836 837 838 839 840 841
v 842 -843 -844 -845 -846 -847 -848 -849 -850 -851 -852 -853 -854 -855 856 857
v 858 859 860 861 862 863 864 865 866 867 868 869 870 871 872 873 874 875 876
v 877 878 879 880 881 882 883 884 885 886 887 888 889 890 891 892 893 894 895
v 896 897 898 899 900 901 902 903 904 905 906 907 908 909 910 911 912 913 914
v 915 916 -917 -918 -919 -920 -921 -922 -923 -924 -925 -926 -927 -928 -929
v -930 -931 932 933 934 935 936 937 938 939 940 941 942 943 944 945 946 947
v 948 949 950 951 952 953 954 955 956 957 958 959 960 961 962 963 964 965 966
v 967 968 969 970 971 972 973 974 975 976 977 978 979 980 981 982 983 984 985
v 986 987 988 989 990 -991 -992 -993 -994 -995 -996 -997 -998 -999 -1000 -1001
v -1002 -1003 -1004 -1005 -1006 -1007 -1008 -1009 -1010 1011 1012 1013 1014
v 1015 1016 1017 1018 1019 1020 1021 1022 1023 1024 1025 1026 1027 1028 1029
v 1030 1031 1032 1033 1034 1035 1036 1037 1038 1039 1040 1041 1042 1043 1044
v 1045 1046 1047 1048 1049 1050 1051 1052 1053 1054 1055 1056 1057 1058 1059
v 1060 1061 1062 1063 1064 -1065 -1066 -1067 -1068 -1069 -1070 -1071 -1072
v -1073 -1074 -1075 -1076 -1077 -1078 -1079 -1080 -1081 -1082 -1083 -1084
v -1085 -1086 -1087 -1088 -1089 -1090 -1091 -1092 1093 1094 1095 1096 1097
v 1098 1099 1100 1101 1102 1103 1104 1105 1106 1107 1108 1109 1110 1111 1112
v 1113 1114 1115 1116 1117 1118 1119 1120 1121 1122 1123 1124 1125 1126 1127
v 1128 1129 1130 1131 1132 1133 1134 1135 1136 1137 1138 -1139 -1140 -1141
v -1142 -1143 -1144 -1145 -1146 -1147 -1148 -1149 -1150 -1151 -1152 -1153
v -1154 -1155 -1156 -1157 -1158 -1159 -1160 -1161 -1162 -1163 -1164 -1165
v -1166 -1167 -1168 -1169 1170 1171 1172 1173 1174 1175 1176 1177 1178 1179
v 1180 1181 1182 1183 1184 1185 1186 1187 1188 1189 1190 1191 1192 1193 1194
v 1195 1196 1197 1198 1199 1200 1201 1202 1203 1204 1205 1206 1207 1208 1209
v 1210 1211 1212 -1213 -1214 -1215 -1216 -1217 -1218 -1219 -1220 -1221 -1222
v -1223 -1224 -1225 -1226 -1227 -1228 -1229 -1230 -1231 -1232 -1233 -1234
v -1235 -1236 -1237 -1238 -1239 -1240 -1241 -1242 -1243 -1244 1245 1246 1247
v 1248 1249 1250 1251 1252 1253 1254 1255 1256 1257 1258 1259 1260 1261 1262
v 1263 1264 1265 1266 1267 1268 1269 1270 1271 1272 1273 1274 1275 1276 1277
v 1278 1279 1280 1281 1282 1283 1284 1285 1286 -1287 -1288 -1289 -1290 -1291
v -1292 -1293 -1294 -1295 -1296 -1297 -1298 -1299 -1300 -1301 -1302 -1303
v -1304 -1305 -1306 -1307 -1308 -1309 -1310 -1311 -1312 -1313 -1314 -1315
v -1316 -1317 -1318 -1319 -1320 1321 1322 1323 1324 1325 1326 1327 1328 1329
v 1330 1331 1332 1333 1334 1335 1336 1337 1338 1339 1340 1341 1342 1343 1344
v 1345 1346 1347 1348 1349 1350 1351 1352 1353 1354 1355 1356 1357 1358 1359
v 1360 -1361 -1362 -1363 -1364 -1365 -1366 -1367 -1368 -1369 -1370 -1371 -1372
v -1373 -1374 -1375 -1376 -1377 -1378 -1379 -1380 -1381 -1382 -1383 -1384
v -1385 -1386 -1387 -1388 -1389 -1390 -1391 -1392 -1393 -1394 -1395 -1396
v -1397 1398 1399 1400 1401 1402 1403 1404 1405 1406 1407 1408 1409 1410 1411
v 1412 1413 1414 1415 1416 1417 1418 1419 1420 1421 1422 1423 1424 1425 1426
v 1427 1428 1429 1430 1431 1432 1433 1434 -1435 -1436 -1437 -1438 -1439 -1440
v -1441 -1442 -1443 -1444 -1445 -1446 -1447 -1448 -1449 -1450 -1451 -1452
v -1453 -1454 -1455 -1456 -1457 -1458 -1459 -1460 -1461 -1462 -1463 -1464
v -1465 -1466 -1467 -1468 -1469 -1470 -1471 -1472 1473 1474 1475 1476 1477
v 1478 1479 1480 1481 1482 1483 1484 1485 1486 1487 1488 1489 1490 1491 1492
v 1493 1494 1495 1496 1497 1498 1499 1500 1501 1502 1503 1504 1505 1506 1507
v 1508 -1509 -1510 -1511 -1512 -1513 -1514 -1515 -1516 -1517 -1518 -1519 -1520
v -1521 -1522 -1523 -1524 -1525 -1526 -1527 -1528 -1529 -1530 -1531 -1532
v -1533 -1534 -1535 -1536 -1537 -1538 -1539 -1540 -1541 -1542 -1543 -1544
v -1545 -1546 -1547 1548 1549 1550 1551 1552 1553 1554 1555 1556 1557 1558
v 1559 1560 1561 1562 1563 1564 1565 1566 1567 1568 1569 1570 1571 1572 1573
v 1574 1575 1576 1577 1578 1579 1580 1581 1582 -1583 -1584 -1585 -1586 -1587
v -1588 -1589 -1590 -1591 -1592 -1593 -1594 -1595 -1596 -1597 -1598 -1599
v -1600 -1601 -1602 -1603 -1604 -1605 -1606 -1607 -1608 -1609 -1610 -1611
v -1612 -1613 -1614 -1615 -1616 -1617 -1618 -1619 -1620 -1621 -1622 -1623
v -1624 1625 1626 1627 1628 1629 1630 1631 1632 1633 1634 1635 1636 1637 1638
v 1639 1640 1641 1642 1643 1644 1645 1646 1647 1648 1649 1650 1651 1652 1653
v 1654 1655 1656 -1657 -1658 -1659 -1660 -1661 -1662 -1663 -1664 -1665 -1666
v -1667 -1668 -1669 -1670 -1671 -1672 -1673 -1674 -1675 -1676 -1677 -1678
v -1679 -1680 -1681 -1682 -1683 -1684 -1685 -1686 -1687 -1688 -1689 -1690
v -1691 -1692 -1693 -1694 -1695 -1696 -1697 -1698 -1699 1700 1701 1702 1703
v 1704 1705 1706 1707 1708 1709 1710 1711 1712 1713 1714 1715 1716 1717 1718
v 1719 1720 1721 1722 1723 1724 1725 1726 1727 1728 1729 1730 -1731 -1732
v -1733 -1734 -1735 -1736 -1737 -1738 -1739 -1740 -1741 -1742 -1743 -1744
v -1745 -1746 -1747 -1748 -1749 -1750 -1751 -1752 -1753 -1754 -1755 -1756
v -1757 -1758 -1759 -1760 -1761 -1762 -1763 -1764 -1765 -1766 -1767 -1768
v -1769 -1770 -1771 -1772 -1773 -1774 1775 1776 1777 1778 1779 1780 1781 1782
v 1783 1784 1785 1786 1787 1788 1789 1790 1791 1792 1793 1794 1795 1796 1797
v 1798 1799 1800 1801 1802 1803 1804 -1805 -1806 -1807 -1808 -1809 -1810 -1811
v -1812 -1813 -1814 -1815 -1816 -1817 -1818 -1819 -1820 -1821 -1822 -1823
v -1824 -1825 -1826 -1827 -1828 -1829 -1830 -1831 -1832 -1833 -1834 -1835
v -1836 -1837 -1838 -1839 -1840 -1841 -1842 -1843 -1844 -1845 -1846 -1847
v -1848 -1849 -1850 -1851 -1852 -1853 -1854 -1855 1856 1857 1858 1859 1860
v 1861 1862 1863 1864 1865 1866 1867 1868 1869 1870 1871 1872 1873 1874 1875
v 1876 1877 1878 -1879 -1880 -1881 -1882 -1883 -1884 -1885 -1886 -1887 -1888
v -1889 -1890 -1891 -1892 -1893 -1894 -1895 -1896 -1897 -1898 -1899 -1900
v -1901 -1902 -1903 -1904 -1905 -1906 -1907 -1908 -1909 -1910 -1911 -1912
v -1913 -1914 -1915 -1916 -1917 -1918 -1919 -1920 -1921 -1922 -1923 -1924
v -1925 -1926 -1927 -1928 -1929 -1930 1931 1932 1933 1934 1935 1936 1937 1938
v 1939 1940 1941 1942 1943 1944 1945 1946 1947 1948 1949 1950 1951 1952 -1953
v -1954 -1955 -1956 -1957 -1958 -1959 -1960 -1961 -1962 -1963 -1964 -1965
v -1966 -1967 -1968 -1969 -1970 -1971 -1972 -1973 -1974 -1975 -1976 -1977
v -1978 -1979 -1980 -1981 -1982 -1983 -1984 -1985 -1986 -1987 -1988 -1989
v -1990 -1991 -1992 -1993 -1994 -1995 -1996 -1997 -1998 -1999 -2000 -2001
v -2002 -2003 -2004 -2005 2006 2007 2008 2009 2010 2011 2012 2013 2014 2015
v 2016 2017 2018 2019 2020 2021 2022 2023 2024 2025 2026 -2027 -2028 -2029
v -2030 -2031 -2032 -2033 -2034 -2035 -2036 -2037 -2038 -2039 -2040 -2041
v -2042 -2043 -2044 -2045 -2046 -2047 -2048 -2049 -2050 -2051 -2052 -2053
v -2054 -2055 -2056 -2057 -2058 -2059 -2060 -2061 -2062 -2063 -2064 -2065
v -2066 -2067 -2068 -2069 -2070 -2071 -2072 -2073 -2074 -2075 -2076 -2077
v -2078 -2079 -2080 -2081 -2082 2083 2084 2085 2086 2087 2088 2089 2090 2091
v 2092 2093 2094 2095 2096 2097 2098 2099 2100 -2101 -2102 -2103 -2104 -2105
v -2106 -2107 -2108 -2109 -2110 -2111 -2112 -2113 -2114 -2115 -2116 -2117
v -2118 -2119 -2120 -2121 -2122 -2123 -2124 -2125 -2126 -2127 -2128 -2129
v -2130 -2131 -2132 -2133 -2134 -2135 -2136 -2137 -2138 -2139 -2140 -2141
v -2142 -2143 -2144 -2145 -2146 -2147 -2148 -2149 -2150 -2151 -2152 -2153
v -2154 -2155 -2156 -2157 2158 2159 2160 2161 2162 2163 2164 2165 2166 2167
v 2168 2169 2170 2171 2172 2173 2174 -2175 -2176 -2177 -2178 -2179 -2180 -2181
v -2182 -2183 -2184 -2185 -2186 -2187 -2188 -2189 -2190 -2191 -2192 -2193
v -2194 -2195 -2196 -2197 -2198 -2199 -2200 -2201 -2202 -2203 -2204 -2205
v -2206 -2207 -2208 -2209 -2210 -2211 -2212 -2213 -2214 -2215 -2216 -2217
v -2218 -2219 -2220 -2221 -2222 -2223 -2224 -2225 -2226 -2227 -2228 -2229
v -2230 -2231 -2232 -2233 2234 2235 2236 2237 2238 2239 2240 2241 2242 2243
v 2244 2245 2246 2247 2248 -2249 -2250 -2251 -2252 -2253 -2254 -2255 -2256
v -2257 -2258 -2259 -2260 -2261 -2262 -2263 -2264 -2265 -2266 -2267 -2268
v -2269 -2270 -2271 -2272 -2273 -2274 -2275 -2276 -2277 -2278 -2279 -2280
v -2281 -2282 -2283 -2284 -2285 -2286 -2287 -2288 -2289 -2290 -2291 -2292
v -2293 -2294 -2295 -2296 -2297 -2298 -2299 -2300 -2301 -2302 -2303 -2304
v -2305 -2306 -2307 -2308 -2309 2310 2311 2312 2313 2314 2315 2316 2317 2318
v 2319 2320 2321 2322 -2323 -2324 -2325 -2326 -2327 -2328 -2329 -2330 -2331
v -2332 -2333 -2334 -2335 -2336 -2337 -2338 -2339 -2340 -2341 -2342 -2343
v -2344 -2345 -2346 -2347 -2348 -2349 -2350 -2351 -2352 -2353 -2354 -2355
v -2356 -2357 -2358 -2359 -2360 -2361 -2362 -2363 -2364 -2365 -2366 -2367
v -2368 -2369 -2370 -2371 -2372 -2373 -2374 -2375 -2376 -2377 -2378 -2379
v -2380 -2381 -2382 -2383 -2384 2385 2386 2387 2388 2389 2390 2391 2392 2393
v 2394 2395 2396 -2397 -2398 -2399 -2400 -2401 -2402 -2403 -2404 -2405 -2406
v -2407 -2408 -2409 -2410 -2411 -2412 -2413 -2414 -2415 -2416 -2417 -2418
v -2419 -2420 -2421 -2422 -2423 -2424 -2425 -2426 -2427 -2428 -2429 -2430
v -2431 -2432 -2433 -2434 -2435 -2436 -2437 -2438 -2439 -2440 -2441 -2442
v -2443 -2444 -2445 -2446 -2447 -2448 -2449 -2450 -2451 -2452 -2453 -2454
v -2455 -2456 -2457 -2458 -2459 -2460 -2461 -2462 2463 2464 2465 2466 2467
v 2468 2469 2470 -2471 -2472 -2473 -2474 -2475 -2476 -2477 -2478 -2479 -2480
v -2481 -2482 -2483 -2484 -2485 -2486 -2487 -2488 -2489 -2490 -2491 -2492
v -2493 -2494 -2495 -2496 -2497 -2498 -2499 -2500 -2501 -2502 -2503 -2504
v -2505 -2506 -2507 -2508 -2509 -2510 -2511 -2512 -2513 -2514 -2515 -2516
v -2517 -2518 -2519 -2520 -2521 -2522 -2523 -2524 -2525 -2526 -2527 -2528
v -2529 -2530 -2531 -2532 -2533 -2534 -2535 -2536 -2537 2538 2539 2540 2541
v 2542 2543 2544 -2545 -2546 -2547 -2548 -2549 -2550 -2551 -2552 -2553 -2554
v -2555 -2556 -2557 -2558 -2559 -2560 -2561 -2562 -2563 -2564 -2565 -2566
v -2567 -2568 -2569 -2570 -2571 -2572 -2573 -2574 -2575 -2576 -2577 -2578
v -2579 -2580 -2581 -2582 -2583 -2584 -2585 -2586 -2587 -2588 -2589 -2590
v -2591 -2592 -2593 -2594 -2595 -2596 -2597 -2598 -2599 -2600 -2601 -2602
v -2603 -2604 -2605 -2606 -2607 -2608 -2609 -2610 -2611 -2612 2613 2614 2615
v 2616 2617 2618 -2619 -2620 -2621 -2622 -2623 -2624 -2625 -2626 -2627 -2628
v -2629 -2630 -2631 -2632 -2633 -2634 -2635 -2636 -2637 -2638 -2639 -2640
v -2641 -2642 -2643 -2644 -2645 -2646 -2647 -2648 -2649 -2650 -2651 -2652
v -2653 -2654 -2655 -2656 -2657 -2658 -2659 -2660 -2661 -2662 -2663 -2664
v -2665 -2666 -2667 -2668 -2669 -2670 -2671 -2672 -2673 -2674 -2675 -2676
v -2677 -2678 -2679 -2680 -2681 -2682 -2683 -2684 -2685 -2686 -2687 -2688
v -2689 -2690 -2691 -2692 0
c 
c --- [ run-time profiling ] -------------------------------------------------
c 
c process time taken by individual solving procedures
c (percentage relative to process time for solving)
c 
c        44.33   97.48% search
c        22.38   49.22% unstable
c        21.03   46.24% stable
c         1.14    2.51% simplify
c         0.92    2.02% walk
c         0.51    1.11% subsume
c         0.29    0.63% vivify
c         0.12    0.27% probe
c         0.08    0.17% elim
c         0.05    0.12% ternary
c         0.00    0.01% parse
c         0.00    0.00% lucky
c   =================================
c        45.47   99.99% solve
c 
c last line shows process time for solving
c (percentage relative to total process time)
c 
c --- [ statistics ] ---------------------------------------------------------
c 
c chronological:            129873        20.61 %  of conflicts
c conflicts:                630055     13855.12    per second
c decisions:               1145178     25182.84    per second
c eliminated:                 2001        74.33 %  of all variables
c fixed:                       124         4.61 %  of all variables
c learned:                  618127        98.11 %  per conflict
c learned_lits:           24885846       100.00 %  learned literals
c minimized:                     0         0.00 %  learned literals
c shrunken:                6742683        27.09 %  learned literals
c minishrunken:            2836985        11.40 %  learned literals
c propagations:           54492876         1.20 M  per second
c reduced:                  504274        80.04 %  per conflict
c rephased:                     35     18001.57    interval
c restarts:                  23260        27.09    interval
c stabilizing:                   5        45.88 %  of conflicts
c subsumed:                  63284         4.98 %  of all clauses
c strengthened:               6297         0.50 %  of all clauses
c ternary:                      24         0.05 %  of resolved
c vivified:                     98         0.01 %  of all clauses
c walked:                       11     57277.73    interval
c weakened:                   8596         2.88    average size
c 
c seconds are measured in process time for solving
c 
c --- [ resources ] ----------------------------------------------------------
c 
c total process time since initialization:        45.48    seconds
c total real time since initialization:           45.49    seconds
c maximum resident set size of process:           21.16    MB
c 
c --- [ shutting down ] ------------------------------------------------------
c 
c exit 10
